* ENCODING=ISO-8859-1
NAME          CPLEX
ROWS
 N  obj1    
 G  c1      
 G  c2      
 G  c3      
 G  c4      
 G  c5      
 G  c6      
 G  c7      
 G  c8      
 G  c9      
 G  c10     
 G  c11     
 G  c12     
 G  c13     
 G  c14     
 G  c15     
 G  c16     
 G  c17     
 G  c18     
 G  c19     
 G  c20     
 G  c21     
 G  c22     
 G  c23     
 G  c24     
 G  c25     
 G  c26     
 G  c27     
 G  c28     
 G  c29     
 G  c30     
 G  c31     
 G  c32     
 G  c33     
 G  c34     
 G  c35     
COLUMNS
    MARK0000  'MARKER'                 'INTORG'
    x1        obj1                            1
    x1        c2                            535
    x1        c25                           400
    x1        c31                           818
    x2        obj1                            1
    x2        c6                            180
    x2        c13                           856
    x2        c34                           480
    x3        obj1                            1
    x3        c5                            371
    x3        c27                           837
    x4        obj1                            1
    x4        c3                            657
    x4        c22                           794
    x4        c26                           844
    x4        c27                           876
    x5        obj1                            1
    x5        c11                           607
    x5        c24                           391
    x5        c28                           476
    x5        c30                           250
    x5        c32                           278
    x6        obj1                            1
    x6        c4                            290
    x6        c6                            428
    x6        c9                            886
    x7        obj1                            1
    x7        c11                           112
    x7        c28                           720
    x8        obj1                            1
    x8        c8                            494
    x8        c19                           170
    x8        c29                           233
    x9        obj1                            1
    x9        c3                            121
    x9        c33                           620
    x9        c35                           394
    x10       obj1                            1
    x10       c18                           702
    x10       c21                           636
    x11       obj1                            1
    x11       c2                            697
    x11       c16                           717
    x11       c19                           447
    x12       obj1                            1
    x12       c19                           859
    x12       c28                           891
    x12       c32                           763
    x13       obj1                            1
    x13       c8                            174
    x13       c26                          1000
    x14       obj1                            1
    x14       c3                            671
    x14       c18                           683
    x14       c30                           478
    x14       c33                           708
    x15       obj1                            1
    x15       c19                           385
    x15       c20                           970
    x15       c21                           677
    x15       c24                           956
    x15       c25                           630
    x15       c26                           568
    x16       obj1                            1
    x16       c2                            730
    x16       c9                            253
    x16       c32                           285
    x17       obj1                            1
    x17       c2                            341
    x18       obj1                            1
    x18       c4                            997
    x18       c5                            802
    x18       c14                           847
    x18       c17                           443
    x18       c29                           157
    x19       obj1                            1
    x19       c16                           630
    x19       c19                           307
    x19       c25                           556
    x19       c27                           864
    x20       obj1                            1
    x20       c13                           720
    x20       c15                           911
    x20       c23                           599
    x20       c27                           282
    x20       c32                           210
    x20       c34                           364
    x21       obj1                            1
    x21       c15                           125
    x21       c25                           878
    x21       c27                           476
    x22       obj1                            1
    x22       c14                           596
    x22       c17                           553
    x22       c18                           556
    x22       c20                           585
    x23       obj1                            1
    x23       c1                            990
    x23       c6                            962
    x23       c9                            702
    x23       c10                           497
    x24       obj1                            1
    x24       c11                           942
    x24       c22                           788
    x25       obj1                            1
    x25       c4                            530
    x25       c6                            379
    x25       c16                           134
    x25       c29                           572
    x26       obj1                            1
    x26       c34                           516
    x27       obj1                            1
    x27       c3                            805
    x27       c6                            673
    x27       c17                           152
    x27       c22                           449
    x27       c24                           401
    x27       c33                           244
    x28       obj1                            1
    x28       c1                            151
    x29       obj1                            1
    x29       c11                           512
    x29       c13                           904
    x29       c14                           212
    x29       c16                           217
    x29       c19                           455
    x29       c25                           343
    x29       c30                           357
    x29       c33                           134
    x30       obj1                            1
    x30       c2                            678
    x30       c5                            105
    x30       c23                           876
    x31       obj1                            1
    x31       c20                           724
    x31       c22                           973
    x31       c30                           358
    x31       c31                           692
    x32       obj1                            1
    x32       c2                            547
    x32       c18                           861
    x32       c20                           863
    x32       c30                           916
    x32       c35                           390
    x33       obj1                            1
    x33       c3                            555
    x33       c11                           493
    x33       c14                           952
    x33       c24                           153
    x34       obj1                            1
    x34       c13                           986
    x34       c14                           182
    x34       c19                           213
    x34       c31                           427
    x35       obj1                            1
    x35       c1                            966
    x35       c15                           105
    x35       c19                           290
    x35       c21                           774
    x36       obj1                            1
    x36       c7                            992
    x36       c8                            585
    x36       c19                           522
    x37       obj1                            1
    x37       c2                            610
    x37       c26                           822
    x37       c35                           421
    x38       obj1                            1
    x39       obj1                            1
    x39       c22                           277
    x39       c33                           487
    x40       obj1                            1
    x40       c3                            669
    x40       c5                            490
    x40       c22                           856
    x40       c29                           758
    x41       obj1                            1
    x41       c31                           934
    x42       obj1                            1
    x42       c3                            168
    x42       c13                           866
    x42       c20                           743
    x42       c28                           636
    x43       obj1                            1
    x43       c12                           173
    x43       c28                           461
    x43       c29                           697
    x44       obj1                            1
    x44       c11                           182
    x44       c20                           758
    x44       c35                           445
    x45       obj1                            1
    x45       c21                           663
    x45       c28                           878
    x45       c34                           953
    x46       obj1                            1
    x46       c30                           432
    x46       c34                           448
    x47       obj1                            1
    x47       c6                            508
    x48       obj1                            1
    x48       c1                            494
    x48       c2                            622
    x48       c13                           452
    x48       c34                           417
    x49       obj1                            1
    x49       c9                            596
    x49       c10                           596
    x49       c23                           860
    x49       c24                           120
    x49       c34                           560
    x50       obj1                            1
    x50       c13                           792
    x50       c35                           698
    x51       obj1                            1
    x51       c1                            737
    x51       c13                           824
    x51       c18                           498
    x51       c28                           351
    x52       obj1                            1
    x52       c11                           121
    x52       c12                           844
    x52       c25                           206
    x52       c30                           818
    x53       obj1                            1
    x53       c10                           952
    x53       c18                           771
    x54       obj1                            1
    x54       c12                           464
    x54       c18                           816
    x54       c22                           938
    x54       c23                           293
    x54       c29                           801
    x55       obj1                            1
    x55       c7                            613
    x55       c14                           373
    x55       c17                           679
    x56       obj1                            1
    x56       c6                            187
    x56       c14                           398
    x57       obj1                            1
    x57       c11                           865
    x57       c27                           941
    x57       c33                           374
    x58       obj1                            1
    x58       c4                            418
    x58       c13                           784
    x58       c15                           399
    x58       c16                           879
    x58       c20                           471
    x58       c22                           146
    x58       c28                           906
    x59       obj1                            1
    x59       c14                           766
    x59       c21                           284
    x59       c29                           267
    x60       obj1                            1
    x60       c4                            949
    x60       c12                           725
    x60       c29                           841
    x60       c34                           116
    x61       obj1                            1
    x62       obj1                            1
    x62       c23                           133
    x62       c29                           402
    x63       obj1                            1
    x63       c1                            847
    x63       c7                            857
    x63       c9                            583
    x63       c13                           475
    x64       obj1                            1
    x64       c11                           846
    x64       c23                           162
    x65       obj1                            1
    x65       c2                            313
    x65       c14                           931
    x65       c19                           752
    x65       c20                           309
    x65       c28                           834
    x65       c30                           356
    x65       c35                           419
    x66       obj1                            1
    x66       c7                            480
    x66       c8                            928
    x67       obj1                            1
    x67       c12                           428
    x67       c24                           468
    x68       obj1                            1
    x68       c2                            876
    x68       c4                            508
    x68       c11                           513
    x68       c17                           211
    x69       obj1                            1
    x69       c15                           864
    x69       c17                           628
    x69       c29                           284
    x69       c33                           419
    x70       obj1                            1
    x70       c1                            552
    x70       c7                            783
    x70       c10                           455
    x70       c22                           954
    MARK0001  'MARKER'                 'INTEND'
RHS
    rhs       c1                           2369
    rhs       c2                           2975
    rhs       c3                           1823
    rhs       c4                           1846
    rhs       c5                            884
    rhs       c6                           1659
    rhs       c7                           1863
    rhs       c8                           1091
    rhs       c9                           1510
    rhs       c10                          1250
    rhs       c11                          2597
    rhs       c12                          1317
    rhs       c13                          3830
    rhs       c14                          2629
    rhs       c15                          1202
    rhs       c16                          1289
    rhs       c17                          1333
    rhs       c18                          2444
    rhs       c19                          2200
    rhs       c20                          2712
    rhs       c21                          1517
    rhs       c22                          3088
    rhs       c23                          1462
    rhs       c24                          1245
    rhs       c25                          1507
    rhs       c26                          1617
    rhs       c27                          2138
    rhs       c28                          3077
    rhs       c29                          2506
    rhs       c30                          1983
    rhs       c31                          1436
    rhs       c32                           768
    rhs       c33                          1493
    rhs       c34                          1927
    rhs       c35                          1384
BOUNDS
 LI bnd       x1        0
 LI bnd       x2        0
 LI bnd       x3        0
 LI bnd       x4        0
 LI bnd       x5        0
 LI bnd       x6        0
 LI bnd       x7        0
 LI bnd       x8        0
 LI bnd       x9        0
 LI bnd       x10       0
 LI bnd       x11       0
 LI bnd       x12       0
 LI bnd       x13       0
 LI bnd       x14       0
 LI bnd       x15       0
 LI bnd       x16       0
 LI bnd       x17       0
 LI bnd       x18       0
 LI bnd       x19       0
 LI bnd       x20       0
 LI bnd       x21       0
 LI bnd       x22       0
 LI bnd       x23       0
 LI bnd       x24       0
 LI bnd       x25       0
 LI bnd       x26       0
 LI bnd       x27       0
 LI bnd       x28       0
 LI bnd       x29       0
 LI bnd       x30       0
 LI bnd       x31       0
 LI bnd       x32       0
 LI bnd       x33       0
 LI bnd       x34       0
 LI bnd       x35       0
 LI bnd       x36       0
 LI bnd       x37       0
 LI bnd       x38       0
 LI bnd       x39       0
 LI bnd       x40       0
 LI bnd       x41       0
 LI bnd       x42       0
 LI bnd       x43       0
 LI bnd       x44       0
 LI bnd       x45       0
 LI bnd       x46       0
 LI bnd       x47       0
 LI bnd       x48       0
 LI bnd       x49       0
 LI bnd       x50       0
 LI bnd       x51       0
 LI bnd       x52       0
 LI bnd       x53       0
 LI bnd       x54       0
 LI bnd       x55       0
 LI bnd       x56       0
 LI bnd       x57       0
 LI bnd       x58       0
 LI bnd       x59       0
 LI bnd       x60       0
 LI bnd       x61       0
 LI bnd       x62       0
 LI bnd       x63       0
 LI bnd       x64       0
 LI bnd       x65       0
 LI bnd       x66       0
 LI bnd       x67       0
 LI bnd       x68       0
 LI bnd       x69       0
 LI bnd       x70       0
ENDATA
